58
150
120	2
118	2
117	1
116	1
114	2
113	1
112	1
110	1
105	6
104	1
102	1
101	1
100	3
98	2
97	3
96	1
95	2
93	2
92	2
87	1
85	3
84	3
83	2
79	1
78	1
77	4
75	1
74	1
70	1
69	1
68	1
67	1
65	2
64	1
62	2
60	1
59	1
57	1
56	1
54	2
53	3
51	1
50	1
48	2
46	1
45	1
44	2
43	2
42	1
41	1
40	1
39	3
38	1
37	2
36	5
34	2
33	1
30	3
